p edge 89 1208
e 1 3
e 1 5
e 1 6
e 1 8
e 1 11
e 1 16
e 1 22
e 1 23
e 1 25
e 1 32
e 1 34
e 1 37
e 1 38
e 1 39
e 1 46
e 1 49
e 1 51
e 1 53
e 1 62
e 1 67
e 1 68
e 1 70
e 1 75
e 1 81
e 1 84
e 1 85
e 2 3
e 2 4
e 2 6
e 2 8
e 2 16
e 2 20
e 2 22
e 2 23
e 2 32
e 2 33
e 2 34
e 2 37
e 2 38
e 2 42
e 2 43
e 2 44
e 2 47
e 2 50
e 2 51
e 2 53
e 2 61
e 2 62
e 2 71
e 2 74
e 2 76
e 2 79
e 2 81
e 2 82
e 2 85
e 2 86
e 3 4
e 3 5
e 3 7
e 3 9
e 3 13
e 3 14
e 3 15
e 3 17
e 3 21
e 3 27
e 3 30
e 3 31
e 3 32
e 3 38
e 3 39
e 3 40
e 3 42
e 3 44
e 3 48
e 3 49
e 3 52
e 3 53
e 3 58
e 3 63
e 3 69
e 3 73
e 3 80
e 3 82
e 4 7
e 4 9
e 4 10
e 4 15
e 4 16
e 4 17
e 4 20
e 4 22
e 4 26
e 4 27
e 4 30
e 4 34
e 4 35
e 4 36
e 4 40
e 4 44
e 4 47
e 4 49
e 4 55
e 4 57
e 4 67
e 4 68
e 4 75
e 4 81
e 4 85
e 4 87
e 4 88
e 5 11
e 5 14
e 5 18
e 5 19
e 5 20
e 5 23
e 5 25
e 5 29
e 5 31
e 5 32
e 5 33
e 5 39
e 5 42
e 5 46
e 5 47
e 5 51
e 5 53
e 5 59
e 5 65
e 5 66
e 5 73
e 5 75
e 5 76
e 5 77
e 5 88
e 5 89
e 6 16
e 6 17
e 6 33
e 6 39
e 6 40
e 6 41
e 6 43
e 6 48
e 6 49
e 6 50
e 6 56
e 6 57
e 6 58
e 6 62
e 6 75
e 6 77
e 6 83
e 6 85
e 6 86
e 6 87
e 7 10
e 7 13
e 7 15
e 7 18
e 7 19
e 7 24
e 7 25
e 7 26
e 7 27
e 7 33
e 7 34
e 7 36
e 7 37
e 7 38
e 7 44
e 7 47
e 7 48
e 7 54
e 7 56
e 7 67
e 7 75
e 7 77
e 7 79
e 7 80
e 7 82
e 7 86
e 7 89
e 8 15
e 8 16
e 8 18
e 8 25
e 8 26
e 8 31
e 8 32
e 8 37
e 8 45
e 8 47
e 8 51
e 8 53
e 8 55
e 8 59
e 8 63
e 8 66
e 8 67
e 8 70
e 8 74
e 8 77
e 8 78
e 8 80
e 8 82
e 8 84
e 8 85
e 8 87
e 8 89
e 9 11
e 9 12
e 9 15
e 9 20
e 9 21
e 9 22
e 9 24
e 9 27
e 9 29
e 9 32
e 9 33
e 9 41
e 9 42
e 9 44
e 9 50
e 9 52
e 9 67
e 9 68
e 9 70
e 9 71
e 9 81
e 9 82
e 9 86
e 10 11
e 10 17
e 10 25
e 10 28
e 10 36
e 10 37
e 10 39
e 10 40
e 10 41
e 10 42
e 10 45
e 10 50
e 10 60
e 10 65
e 10 70
e 10 71
e 10 74
e 10 75
e 10 83
e 11 12
e 11 13
e 11 15
e 11 18
e 11 21
e 11 22
e 11 24
e 11 26
e 11 28
e 11 32
e 11 41
e 11 42
e 11 43
e 11 44
e 11 51
e 11 53
e 11 54
e 11 56
e 11 59
e 11 61
e 11 64
e 11 65
e 11 66
e 11 68
e 11 73
e 11 74
e 11 76
e 11 77
e 11 82
e 11 83
e 11 84
e 11 85
e 11 86
e 12 14
e 12 17
e 12 20
e 12 24
e 12 25
e 12 32
e 12 33
e 12 34
e 12 35
e 12 41
e 12 48
e 12 49
e 12 52
e 12 53
e 12 58
e 12 59
e 12 62
e 12 63
e 12 65
e 12 66
e 12 68
e 12 72
e 12 75
e 12 76
e 12 77
e 12 82
e 12 87
e 12 89
e 13 20
e 13 22
e 13 27
e 13 35
e 13 36
e 13 38
e 13 43
e 13 45
e 13 50
e 13 54
e 13 57
e 13 58
e 13 68
e 13 70
e 13 73
e 13 76
e 13 82
e 13 83
e 14 20
e 14 21
e 14 22
e 14 39
e 14 40
e 14 41
e 14 47
e 14 51
e 14 61
e 14 62
e 14 71
e 14 77
e 14 79
e 14 81
e 14 82
e 14 83
e 14 84
e 15 16
e 15 22
e 15 25
e 15 27
e 15 28
e 15 29
e 15 31
e 15 33
e 15 37
e 15 41
e 15 51
e 15 53
e 15 58
e 15 59
e 15 60
e 15 69
e 15 73
e 15 75
e 15 76
e 15 77
e 15 79
e 15 80
e 15 81
e 15 84
e 15 85
e 15 86
e 15 88
e 16 17
e 16 24
e 16 28
e 16 29
e 16 31
e 16 32
e 16 36
e 16 37
e 16 39
e 16 42
e 16 43
e 16 46
e 16 49
e 16 50
e 16 52
e 16 55
e 16 57
e 16 62
e 16 64
e 16 68
e 16 72
e 16 73
e 16 77
e 16 81
e 16 84
e 16 85
e 16 87
e 16 88
e 16 89
e 17 18
e 17 19
e 17 21
e 17 28
e 17 29
e 17 30
e 17 35
e 17 38
e 17 39
e 17 40
e 17 43
e 17 44
e 17 45
e 17 48
e 17 50
e 17 55
e 17 56
e 17 59
e 17 64
e 17 65
e 17 67
e 17 69
e 17 71
e 17 77
e 17 79
e 17 81
e 17 87
e 17 88
e 18 22
e 18 23
e 18 26
e 18 33
e 18 34
e 18 37
e 18 44
e 18 47
e 18 62
e 18 63
e 18 69
e 18 71
e 18 73
e 18 74
e 18 76
e 18 78
e 18 80
e 18 84
e 18 88
e 18 89
e 19 22
e 19 23
e 19 28
e 19 30
e 19 33
e 19 36
e 19 37
e 19 39
e 19 41
e 19 46
e 19 57
e 19 58
e 19 59
e 19 61
e 19 62
e 19 68
e 19 70
e 19 71
e 19 75
e 19 76
e 19 78
e 19 79
e 19 84
e 19 88
e 19 89
e 20 23
e 20 34
e 20 39
e 20 48
e 20 49
e 20 50
e 20 53
e 20 54
e 20 59
e 20 63
e 20 64
e 20 65
e 20 66
e 20 67
e 20 68
e 20 75
e 20 81
e 20 82
e 20 84
e 20 86
e 20 88
e 21 22
e 21 23
e 21 26
e 21 28
e 21 29
e 21 31
e 21 35
e 21 40
e 21 44
e 21 46
e 21 51
e 21 54
e 21 61
e 21 63
e 21 64
e 21 65
e 21 68
e 21 81
e 21 82
e 21 83
e 21 86
e 21 89
e 22 26
e 22 29
e 22 35
e 22 38
e 22 42
e 22 43
e 22 49
e 22 51
e 22 60
e 22 65
e 22 67
e 22 69
e 22 72
e 22 81
e 22 82
e 22 86
e 23 26
e 23 33
e 23 34
e 23 35
e 23 36
e 23 37
e 23 44
e 23 55
e 23 57
e 23 60
e 23 66
e 23 69
e 23 72
e 23 74
e 23 82
e 24 26
e 24 28
e 24 30
e 24 36
e 24 42
e 24 48
e 24 49
e 24 56
e 24 57
e 24 58
e 24 62
e 24 66
e 24 75
e 24 76
e 24 79
e 24 80
e 24 84
e 25 27
e 25 28
e 25 31
e 25 34
e 25 35
e 25 36
e 25 40
e 25 42
e 25 47
e 25 53
e 25 55
e 25 57
e 25 63
e 25 64
e 25 65
e 25 67
e 25 68
e 25 69
e 25 76
e 25 77
e 25 79
e 25 81
e 25 82
e 25 89
e 26 27
e 26 29
e 26 30
e 26 31
e 26 32
e 26 33
e 26 34
e 26 39
e 26 41
e 26 43
e 26 44
e 26 48
e 26 55
e 26 56
e 26 57
e 26 58
e 26 59
e 26 60
e 26 66
e 26 70
e 26 72
e 26 75
e 26 78
e 26 79
e 26 80
e 26 82
e 26 84
e 26 87
e 26 89
e 27 31
e 27 37
e 27 40
e 27 41
e 27 48
e 27 50
e 27 54
e 27 58
e 27 66
e 27 72
e 27 75
e 27 76
e 27 78
e 27 79
e 27 80
e 28 32
e 28 33
e 28 38
e 28 39
e 28 40
e 28 42
e 28 45
e 28 47
e 28 50
e 28 51
e 28 52
e 28 53
e 28 60
e 28 61
e 28 62
e 28 64
e 28 73
e 28 75
e 28 83
e 28 84
e 28 87
e 29 31
e 29 34
e 29 38
e 29 41
e 29 44
e 29 47
e 29 49
e 29 51
e 29 58
e 29 61
e 29 68
e 29 69
e 29 72
e 29 73
e 29 76
e 29 79
e 29 84
e 29 89
e 30 34
e 30 39
e 30 43
e 30 44
e 30 45
e 30 47
e 30 48
e 30 51
e 30 52
e 30 54
e 30 56
e 30 57
e 30 63
e 30 64
e 30 65
e 30 71
e 30 80
e 30 83
e 30 86
e 31 32
e 31 34
e 31 37
e 31 38
e 31 40
e 31 43
e 31 46
e 31 48
e 31 49
e 31 52
e 31 53
e 31 55
e 31 57
e 31 59
e 31 61
e 31 62
e 31 64
e 31 67
e 31 68
e 31 70
e 31 71
e 31 73
e 31 74
e 31 76
e 31 77
e 31 78
e 31 79
e 31 83
e 31 84
e 31 86
e 31 89
e 32 37
e 32 38
e 32 39
e 32 41
e 32 42
e 32 43
e 32 45
e 32 46
e 32 50
e 32 51
e 32 52
e 32 60
e 32 68
e 32 69
e 32 71
e 32 72
e 32 74
e 32 77
e 32 80
e 32 84
e 32 87
e 32 89
e 33 37
e 33 41
e 33 47
e 33 49
e 33 50
e 33 52
e 33 61
e 33 62
e 33 65
e 33 66
e 33 67
e 33 75
e 33 79
e 33 81
e 33 83
e 33 84
e 33 85
e 33 87
e 33 88
e 34 45
e 34 50
e 34 58
e 34 61
e 34 62
e 34 67
e 34 69
e 34 72
e 34 76
e 34 81
e 34 82
e 34 84
e 35 36
e 35 37
e 35 41
e 35 48
e 35 58
e 35 63
e 35 64
e 35 80
e 35 81
e 35 83
e 35 87
e 36 37
e 36 39
e 36 44
e 36 55
e 36 58
e 36 75
e 36 78
e 36 81
e 36 82
e 36 89
e 37 41
e 37 42
e 37 44
e 37 45
e 37 47
e 37 48
e 37 52
e 37 54
e 37 56
e 37 59
e 37 60
e 37 63
e 37 64
e 37 65
e 37 72
e 37 75
e 37 77
e 37 83
e 37 84
e 38 40
e 38 41
e 38 53
e 38 54
e 38 55
e 38 60
e 38 63
e 38 66
e 38 68
e 38 76
e 38 77
e 38 78
e 38 82
e 38 84
e 38 85
e 39 41
e 39 45
e 39 49
e 39 52
e 39 54
e 39 58
e 39 60
e 39 64
e 39 66
e 39 68
e 39 71
e 39 72
e 39 75
e 39 80
e 39 87
e 40 42
e 40 43
e 40 44
e 40 48
e 40 53
e 40 54
e 40 57
e 40 58
e 40 72
e 40 81
e 40 85
e 41 43
e 41 44
e 41 48
e 41 50
e 41 51
e 41 53
e 41 54
e 41 62
e 41 66
e 41 80
e 41 86
e 42 43
e 42 50
e 42 53
e 42 56
e 42 65
e 42 66
e 42 70
e 42 71
e 42 74
e 42 78
e 42 83
e 42 84
e 42 86
e 43 48
e 43 54
e 43 64
e 43 65
e 43 66
e 43 70
e 43 76
e 43 85
e 43 89
e 44 49
e 44 53
e 44 60
e 44 61
e 44 62
e 44 73
e 44 88
e 45 51
e 45 57
e 45 58
e 45 59
e 45 60
e 45 61
e 45 63
e 45 64
e 45 66
e 45 67
e 45 69
e 45 71
e 45 73
e 45 78
e 45 79
e 45 80
e 45 86
e 45 88
e 46 48
e 46 57
e 46 60
e 46 63
e 46 68
e 46 73
e 46 74
e 46 77
e 46 80
e 46 81
e 46 82
e 46 88
e 46 89
e 47 52
e 47 53
e 47 55
e 47 60
e 47 65
e 47 73
e 47 74
e 47 76
e 47 78
e 47 84
e 47 86
e 48 49
e 48 50
e 48 51
e 48 52
e 48 57
e 48 61
e 48 69
e 48 71
e 48 78
e 48 81
e 48 82
e 48 83
e 49 53
e 49 54
e 49 55
e 49 63
e 49 67
e 49 68
e 49 75
e 49 76
e 49 77
e 49 78
e 49 79
e 49 80
e 49 81
e 49 83
e 49 88
e 50 51
e 50 54
e 50 56
e 50 58
e 50 66
e 50 67
e 50 68
e 50 70
e 50 76
e 50 77
e 50 80
e 50 83
e 50 87
e 51 64
e 51 66
e 51 72
e 51 75
e 51 84
e 52 55
e 52 62
e 52 63
e 52 68
e 52 70
e 52 75
e 52 77
e 52 79
e 52 80
e 52 81
e 52 84
e 52 87
e 52 89
e 53 57
e 53 60
e 53 63
e 53 64
e 53 66
e 53 67
e 53 68
e 53 71
e 53 74
e 53 78
e 53 80
e 53 81
e 53 83
e 53 88
e 54 58
e 54 64
e 54 67
e 54 71
e 54 74
e 54 75
e 54 86
e 54 87
e 55 62
e 55 64
e 55 66
e 55 67
e 55 68
e 55 69
e 55 72
e 55 74
e 55 80
e 55 83
e 55 84
e 56 60
e 56 61
e 56 65
e 56 66
e 56 67
e 56 68
e 56 69
e 56 72
e 56 75
e 56 76
e 56 77
e 56 79
e 56 80
e 56 82
e 56 83
e 56 87
e 57 62
e 57 77
e 57 78
e 57 79
e 57 85
e 57 87
e 58 63
e 58 65
e 58 71
e 58 75
e 58 83
e 58 84
e 58 86
e 58 88
e 59 61
e 59 63
e 59 70
e 59 73
e 59 79
e 59 83
e 59 89
e 60 64
e 60 68
e 60 70
e 60 73
e 60 79
e 60 83
e 60 84
e 61 62
e 61 63
e 61 65
e 61 71
e 61 80
e 62 73
e 62 75
e 62 77
e 62 78
e 62 79
e 62 82
e 62 84
e 62 86
e 63 66
e 63 70
e 63 75
e 63 79
e 63 80
e 63 82
e 63 86
e 64 65
e 64 68
e 64 71
e 64 73
e 64 78
e 64 80
e 64 81
e 64 83
e 65 66
e 65 67
e 65 69
e 65 74
e 65 75
e 65 76
e 65 78
e 65 80
e 65 83
e 65 84
e 65 86
e 65 89
e 66 71
e 66 73
e 66 76
e 66 77
e 66 80
e 66 81
e 66 85
e 66 89
e 67 69
e 67 70
e 67 73
e 67 77
e 67 83
e 68 70
e 68 72
e 68 73
e 68 74
e 68 78
e 68 79
e 68 81
e 68 84
e 69 70
e 69 72
e 69 78
e 69 79
e 69 80
e 69 81
e 69 87
e 69 89
e 70 72
e 70 79
e 70 80
e 70 81
e 70 82
e 70 89
e 71 79
e 71 80
e 71 81
e 71 82
e 71 85
e 71 87
e 71 89
e 72 79
e 72 83
e 72 85
e 72 89
e 73 81
e 73 85
e 73 86
e 73 88
e 73 89
e 74 76
e 74 77
e 74 79
e 74 86
e 74 87
e 74 88
e 75 77
e 75 80
e 75 81
e 75 82
e 75 85
e 75 86
e 76 79
e 76 81
e 76 83
e 76 84
e 76 87
e 77 80
e 77 81
e 77 83
e 77 85
e 78 79
e 78 80
e 78 83
e 78 87
e 78 89
e 79 88
e 80 83
e 81 82
e 81 83
e 81 86
e 81 87
e 82 83
e 82 86
e 82 88
e 84 87
e 85 87
e 85 88
e 86 88
e 86 89
